Minimize
  6 shipWc_A_Y + 8 shipWc_A_X + 10 shipWc_A_Z + 8 shipWc_C_Y + shipWc_C_X
   + 5 shipWc_C_Z + shipWc_B_Y + 3 shipWc_B_X + 8 shipWc_B_Z + 2 shipWc_D_Y
   + 6 shipWc_D_X + 6 shipWc_D_Z
Subject To
 Y: shipWc_A_Y + shipWc_C_Y + shipWc_B_Y + shipWc_D_Y = 3
 X: shipWc_A_X + shipWc_C_X + shipWc_B_X + shipWc_D_X = 3
 Z: shipWc_A_Z + shipWc_C_Z + shipWc_B_Z + shipWc_D_Z = 8
Bounds
End
